20J6M/DAT/20J6MNNL-15.dat
20 6
29.6177 29.6177
31.7361 31.7361
24.3452 24.3452
24.7742 24.7742
17.8189 17.8189
22.0064 22.0064
25.6845 25.6845
26.1106 26.1106
24.1863 24.1863
26.4828 26.4828
28.5108 28.5108
23.0483 23.0483
28.17 28.17
13.4393 13.4393
28.1376 28.1376
28.5081 28.5081
22.7393 22.7393
21.5958 21.5958
21.8846 21.8846
20.5721 20.5721
489.3686