20J6M/SOL/20J6MNNL-15.sol
solution status: optimal solution found
objective value:                     81.5614333333333
x#1#1                                               1 	(obj:0)
x#2#1                                               1 	(obj:0)
x#3#3                               0.917410139712688 	(obj:0)
x#3#6                              0.0825898602873122 	(obj:0)
x#4#6                                               1 	(obj:0)
x#5#4                                               1 	(obj:0)
x#6#4                               0.920738209490572 	(obj:0)
x#6#5                              0.0792617905094276 	(obj:0)
x#7#2                                               1 	(obj:0)
x#8#6                                               1 	(obj:0)
x#9#5                                               1 	(obj:0)
x#10#2                                              1 	(obj:0)
x#11#1                              0.690572227600301 	(obj:0)
x#11#2                              0.309427772399699 	(obj:0)
x#12#3                                              1 	(obj:0)
x#13#5                              0.975976807478405 	(obj:0)
x#13#6                             0.0240231925215949 	(obj:0)
x#14#3                                              1 	(obj:0)
x#15#5                                              1 	(obj:0)
x#16#1                             0.0182006751297585 	(obj:0)
x#16#6                              0.981799324870242 	(obj:0)
x#17#3                                              1 	(obj:0)
x#18#4                                              1 	(obj:0)
x#19#4                                              1 	(obj:0)
x#20#2                                              1 	(obj:0)
z                                    81.5614333333333 	(obj:1)
